SDVRP instances/custom_instances/p10_13_split0.vrp
NAME:p10_13_split
BEST_KNOWN: 0
COMMENT: 0
DIMENSION: 921
CAPACITY: 200
EDGE_WEIGHT_FORMAT: FUNCTION
EDGE_WEIGHT_TYPE: EXACT_2D
NODE_COORD_SECTION
1 0.00000 0.00000
2 -11 1
3 -11 1
4 -11 1
5 -11 1
6 -11 1
7 35 -3
8 35 -3
9 35 -3
10 35 -3
11 35 -3
12 35 -3
13 35 -3
14 25 -43
15 25 -43
16 25 -43
17 25 -43
18 29 47
19 29 47
20 29 47
21 29 47
22 29 47
23 29 47
24 29 47
25 -8 -5
26 -8 -5
27 -8 -5
28 -8 -5
29 -8 -5
30 -8 -5
31 -8 -5
32 -8 -5
33 7 38
34 7 38
35 7 38
36 7 38
37 7 38
38 -34 -47
39 -34 -47
40 -34 -47
41 -40 0
42 -40 0
43 -40 0
44 -40 0
45 -40 0
46 -40 0
47 -40 0
48 -40 0
49 -19 7
50 -19 7
51 -25 -9
52 -25 -9
53 -25 -9
54 -25 -9
55 -9 42
56 -9 42
57 -9 42
58 -3 44
59 -3 44
60 -3 44
61 -3 44
62 -33 16
63 -33 16
64 -33 16
65 -25 -31
66 -25 -31
67 -25 -31
68 -25 -31
69 -25 -31
70 -25 -31
71 -25 -31
72 28 -18
73 28 -18
74 28 -18
75 28 -18
76 28 -18
77 32 20
78 32 20
79 32 20
80 17 -38
81 17 -38
82 17 -38
83 17 -38
84 2 22
85 2 22
86 2 22
87 2 22
88 2 22
89 2 22
90 2 22
91 -42 49
92 -42 49
93 -42 49
94 -42 49
95 -42 49
96 10 19
97 10 19
98 10 19
99 -9 23
100 -9 23
101 -9 23
102 -9 23
103 -9 23
104 25 10
105 25 10
106 25 10
107 25 10
108 25 10
109 25 10
110 -38 45
111 -38 45
112 -38 45
113 -38 45
114 -50 11
115 -50 11
116 -50 11
117 -50 11
118 -50 11
119 -50 11
120 -50 11
121 -45 43
122 -45 43
123 -45 43
124 -45 43
125 -45 43
126 -2 11
127 -2 11
128 -2 11
129 -2 11
130 14 9
131 14 9
132 14 9
133 14 9
134 28 -42
135 28 -42
136 28 -42
137 43 7
138 43 7
139 43 7
140 43 7
141 43 7
142 43 7
143 49 48
144 49 48
145 49 48
146 49 48
147 12 -13
148 12 -13
149 12 -13
150 12 -13
151 12 -13
152 12 -13
153 12 -13
154 41 -15
155 41 -15
156 41 -15
157 41 -15
158 9 -49
159 9 -49
160 9 -49
161 9 -49
162 9 -49
163 -29 -49
164 -29 -49
165 -29 -49
166 -29 -49
167 -46 20
168 -46 20
169 -46 20
170 -46 20
171 35 -7
172 35 -7
173 35 -7
174 35 -7
175 35 -7
176 35 -7
177 29 -24
178 29 -24
179 29 -24
180 29 -24
181 29 -24
182 29 -24
183 29 -24
184 -3 20
185 -3 20
186 -3 20
187 -3 20
188 -3 20
189 -3 20
190 -3 20
191 -3 20
192 23 15
193 23 15
194 23 15
195 23 15
196 21 5
197 21 5
198 21 5
199 -23 17
200 -23 17
201 -23 17
202 -23 17
203 -23 17
204 24 -1
205 24 -1
206 24 -1
207 24 -1
208 24 -1
209 24 -1
210 24 -1
211 -26 0
212 -26 0
213 -26 0
214 -26 0
215 -26 0
216 -26 0
217 -26 0
218 1 12
219 1 12
220 1 12
221 1 12
222 1 12
223 1 12
224 37 28
225 37 28
226 37 28
227 37 28
228 -30 -11
229 -30 -11
230 -30 -11
231 -30 -11
232 -30 -11
233 -39 -38
234 -39 -38
235 -39 -38
236 -39 -38
237 -29 -33
238 -29 -33
239 -29 -33
240 -29 -33
241 -29 -33
242 -16 -28
243 -16 -28
244 -16 -28
245 49 37
246 49 37
247 49 37
248 49 37
249 36 -39
250 36 -39
251 36 -39
252 36 -39
253 36 -39
254 34 -3
255 34 -3
256 34 -3
257 34 -3
258 34 -3
259 34 -3
260 34 -3
261 5 -38
262 5 -38
263 5 -38
264 5 -38
265 5 -38
266 25 -32
267 25 -32
268 25 -32
269 25 -32
270 25 -32
271 25 -32
272 25 -32
273 -1 12
274 -1 12
275 -1 12
276 -44 -38
277 -44 -38
278 -44 -38
279 -44 -38
280 -44 -38
281 -44 -38
282 -26 5
283 -26 5
284 -26 5
285 -26 5
286 3 -41
287 3 -41
288 20 -8
289 20 -8
290 20 -8
291 20 -8
292 20 -8
293 -19 5
294 -19 5
295 -19 5
296 -19 5
297 8 -11
298 8 -11
299 8 -11
300 8 -11
301 8 -11
302 -8 -1
303 -8 -1
304 -8 -1
305 24 41
306 24 41
307 24 41
308 -18 -42
309 -18 -42
310 -18 -42
311 -18 -42
312 -18 -42
313 -18 -42
314 -11 -19
315 -11 -19
316 -11 -19
317 -11 -19
318 -11 -19
319 -11 -19
320 -11 -19
321 -41 -1
322 -41 -1
323 -41 -1
324 -41 -1
325 -41 -1
326 36 5
327 36 5
328 36 5
329 36 5
330 36 5
331 36 5
332 23 -48
333 23 -48
334 23 -48
335 34 44
336 34 44
337 34 44
338 34 44
339 7 -40
340 7 -40
341 7 -40
342 7 -40
343 16 -16
344 16 -16
345 37 1
346 37 1
347 -47 -38
348 -47 -38
349 -47 -38
350 34 -33
351 34 -33
352 34 -33
353 34 -33
354 34 -33
355 34 -33
356 34 -33
357 2 -5
358 2 -5
359 2 -5
360 -22 7
361 -22 7
362 -22 7
363 -22 7
364 -22 7
365 -22 7
366 50 -37
367 50 -37
368 50 -37
369 50 -37
370 50 -37
371 50 -37
372 -7 46
373 -7 46
374 -7 46
375 -7 46
376 -7 46
377 16 5
378 16 5
379 -2 -24
380 -2 -24
381 -2 -24
382 -2 -24
383 -2 -24
384 -2 -24
385 -36 27
386 -36 27
387 -36 27
388 -36 27
389 -36 27
390 16 49
391 16 49
392 16 49
393 16 49
394 16 49
395 -20 47
396 -20 47
397 -20 47
398 -20 47
399 25 46
400 25 46
401 25 46
402 25 46
403 25 46
404 25 46
405 -47 27
406 -47 27
407 7 14
408 7 14
409 7 14
410 7 14
411 7 14
412 -50 16
413 -50 16
414 -50 16
415 -50 16
416 -50 16
417 -50 16
418 -50 16
419 -45 42
420 -45 42
421 -45 42
422 -45 42
423 -45 42
424 -45 42
425 -45 42
426 -32 29
427 -32 29
428 15 18
429 15 18
430 -41 -49
431 -41 -49
432 -41 -49
433 -41 -49
434 -41 -49
435 -45 25
436 -45 25
437 -45 25
438 -49 -8
439 -49 -8
440 9 37
441 9 37
442 9 37
443 9 37
444 9 37
445 9 37
446 39 48
447 39 48
448 39 48
449 39 48
450 39 48
451 -30 -10
452 -30 -10
453 -30 -10
454 22 37
455 22 37
456 22 37
457 -19 -28
458 -19 -28
459 -19 -28
460 -18 -42
461 -18 -42
462 -18 -42
463 -17 33
464 -17 33
465 -17 33
466 -17 33
467 -17 33
468 -17 33
469 -17 33
470 1 -6
471 1 -6
472 1 -6
473 1 -6
474 1 -6
475 -29 30
476 -29 30
477 17 3
478 17 3
479 17 3
480 17 3
481 17 3
482 17 3
483 -3 14
484 -3 14
485 -3 14
486 -3 14
487 -3 14
488 -3 14
489 -3 14
490 42 48
491 42 48
492 42 48
493 42 48
494 42 48
495 42 48
496 42 48
497 48 46
498 48 46
499 48 46
500 -9 9
501 18 40
502 18 40
503 18 40
504 18 40
505 18 40
506 18 40
507 -23 11
508 -23 11
509 -23 11
510 -23 11
511 -23 11
512 -22 49
513 -22 49
514 -22 49
515 -22 49
516 -22 49
517 -22 49
518 -30 34
519 -30 34
520 -30 34
521 -11 -45
522 -11 -45
523 -11 -45
524 -11 -45
525 -11 -45
526 -11 -45
527 37 -8
528 37 -8
529 37 -8
530 -25 -5
531 -25 -5
532 -25 -5
533 -25 -5
534 -25 -5
535 0 -5
536 0 -5
537 0 -5
538 0 -5
539 -30 -1
540 -30 -1
541 -30 -1
542 -30 -1
543 -30 -1
544 17 -44
545 17 -44
546 17 -44
547 17 -44
548 17 -44
549 -4 12
550 -4 12
551 -4 12
552 -4 12
553 34 44
554 34 44
555 34 44
556 34 44
557 34 44
558 34 44
559 34 44
560 -15 -5
561 -15 -5
562 -15 -5
563 -15 -5
564 -17 -15
565 10 14
566 10 14
567 10 14
568 10 14
569 10 14
570 10 14
571 7 40
572 7 40
573 7 40
574 7 40
575 -5 27
576 -5 27
577 -5 27
578 -5 27
579 -5 27
580 -5 27
581 -40 -46
582 -40 -46
583 5 46
584 5 46
585 -29 9
586 -29 9
587 -49 -20
588 -49 -20
589 -49 -20
590 24 -24
591 24 -24
592 24 -24
593 24 -24
594 24 -24
595 24 -24
596 -16 22
597 -16 22
598 -16 22
599 -16 22
600 -16 22
601 -16 22
602 36 -29
603 36 -29
604 36 -29
605 -13 19
606 -13 19
607 -13 19
608 10 13
609 10 13
610 10 13
611 10 13
612 10 13
613 10 13
614 10 13
615 -9 -29
616 -9 -29
617 -9 -29
618 -9 -29
619 -9 -29
620 -9 -29
621 -9 -29
622 -9 -29
623 -27 29
624 -27 29
625 -27 29
626 -27 29
627 -27 29
628 -27 29
629 -27 29
630 -3 21
631 -3 21
632 -3 21
633 -3 21
634 -3 21
635 -15 28
636 -15 28
637 -15 28
638 -15 28
639 -15 28
640 -15 28
641 -15 28
642 -24 -27
643 -24 -27
644 -24 -27
645 29 14
646 29 14
647 29 14
648 29 14
649 -40 12
650 -40 12
651 14 -16
652 14 -16
653 14 -16
654 -3 8
655 -3 8
656 -3 8
657 -48 41
658 -48 41
659 -18 45
660 -18 45
661 -18 45
662 18 -8
663 18 -8
664 -32 47
665 -32 47
666 -32 47
667 -32 47
668 -39 36
669 -39 36
670 -39 36
671 -29 -12
672 -29 -12
673 -29 -12
674 -29 -12
675 -29 -12
676 25 -7
677 25 -7
678 25 -7
679 25 -7
680 25 -7
681 1 -15
682 1 -15
683 1 -15
684 14 46
685 14 46
686 14 46
687 30 -10
688 30 -10
689 30 -10
690 30 -10
691 1 -13
692 1 -13
693 1 -13
694 46 30
695 46 30
696 46 30
697 46 30
698 -44 13
699 -44 13
700 -44 13
701 -44 13
702 -23 2
703 -23 2
704 -23 2
705 -23 2
706 -23 2
707 -23 2
708 -15 -41
709 -15 -41
710 -15 -41
711 -15 -41
712 -15 -41
713 -15 -41
714 48 16
715 48 16
716 48 16
717 48 16
718 48 16
719 48 16
720 5 13
721 5 13
722 5 13
723 5 13
724 -39 -3
725 -39 -3
726 -39 -3
727 -39 -3
728 -39 -3
729 -39 -3
730 28 -25
731 28 -25
732 28 -25
733 28 -25
734 28 -25
735 -30 -37
736 -30 -37
737 -30 -37
738 -30 -37
739 -30 -37
740 -30 -37
741 23 -47
742 23 -47
743 23 -47
744 23 -47
745 23 -47
746 23 -47
747 35 3
748 -38 -44
749 -38 -44
750 -38 -44
751 -38 -44
752 -38 -44
753 -7 25
754 -7 25
755 -7 25
756 -7 25
757 -7 25
758 8 -33
759 8 -33
760 8 -33
761 8 -33
762 8 -33
763 44 39
764 44 39
765 44 39
766 44 39
767 44 39
768 44 39
769 44 39
770 1 16
771 1 16
772 1 16
773 41 22
774 41 22
775 41 22
776 41 22
777 41 22
778 41 22
779 41 22
780 20 -2
781 20 -2
782 20 -2
783 -10 26
784 -10 26
785 -10 26
786 -10 26
787 -10 26
788 -10 26
789 -10 26
790 -3 -35
791 -3 -35
792 29 -17
793 29 -17
794 29 -17
795 29 -17
796 29 -17
797 -24 -43
798 -24 -43
799 -24 -43
800 -24 -43
801 -24 -43
802 -2 11
803 -2 11
804 -2 11
805 -23 -36
806 -23 -36
807 -23 -36
808 -23 -36
809 -23 -36
810 -23 -36
811 -23 -36
812 -23 -36
813 -1 -43
814 -1 -43
815 -1 -43
816 -1 -43
817 -1 -43
818 -1 -43
819 -1 -43
820 39 18
821 39 18
822 39 18
823 39 18
824 39 18
825 39 18
826 -45 -49
827 -45 -49
828 -45 -49
829 -38 42
830 -38 42
831 -38 42
832 -38 42
833 -1 11
834 -1 11
835 -1 11
836 -1 11
837 -1 11
838 -1 11
839 -35 49
840 -35 49
841 -35 49
842 -35 49
843 -35 49
844 -35 49
845 -35 49
846 -35 49
847 42 -45
848 42 -45
849 42 -45
850 42 -45
851 -36 41
852 -36 41
853 -36 41
854 -36 41
855 -36 41
856 -26 -1
857 -26 -1
858 -26 -1
859 -18 37
860 -18 37
861 -18 37
862 -18 37
863 -18 37
864 -18 37
865 -18 37
866 17 -21
867 17 -21
868 17 -21
869 -29 37
870 -29 37
871 -29 37
872 -29 37
873 -29 37
874 -29 37
875 -43 -8
876 -43 -8
877 -43 -8
878 -43 -8
879 -43 -8
880 -43 -8
881 -43 -8
882 16 4
883 16 4
884 16 4
885 16 4
886 -16 -39
887 -16 -39
888 -16 -39
889 -16 -39
890 -16 -39
891 -16 -39
892 -16 -39
893 -16 -39
894 -25 10
895 -25 10
896 -25 10
897 -25 10
898 -25 10
899 -8 -26
900 -8 -26
901 -8 -26
902 -8 -26
903 6 20
904 6 20
905 37 20
906 37 20
907 -1 -10
908 -1 -10
909 -1 -10
910 16 -8
911 16 -8
912 16 -8
913 16 -8
914 16 -8
915 16 -8
916 29 -35
917 29 -35
918 29 -35
919 29 -35
920 29 -35
921 29 -35
DEMAND_SECTION
1 0
2 20
3 2
4 2
5 2
6 1
7 40
8 10
9 2
10 2
11 2
12 2
13 1
14 40
15 20
16 2
17 1
18 40
19 20
20 10
21 2
22 2
23 2
24 2
25 40
26 20
27 10
28 2
29 2
30 2
31 2
32 1
33 40
34 20
35 10
36 2
37 1
38 40
39 20
40 2
41 40
42 20
43 10
44 2
45 2
46 2
47 2
48 1
49 40
50 10
51 40
52 2
53 2
54 1
55 40
56 2
57 1
58 40
59 40
60 2
61 1
62 20
63 10
64 2
65 40
66 40
67 10
68 2
69 2
70 2
71 1
72 20
73 10
74 2
75 2
76 1
77 40
78 40
79 1
80 40
81 2
82 2
83 1
84 40
85 20
86 10
87 2
88 2
89 2
90 2
91 40
92 40
93 2
94 2
95 1
96 40
97 40
98 2
99 40
100 40
101 10
102 2
103 1
104 40
105 10
106 2
107 2
108 2
109 2
110 20
111 2
112 2
113 1
114 40
115 20
116 10
117 2
118 2
119 2
120 2
121 40
122 20
123 10
124 2
125 2
126 20
127 10
128 2
129 2
130 40
131 40
132 10
133 2
134 40
135 40
136 20
137 40
138 10
139 2
140 2
141 2
142 2
143 40
144 20
145 10
146 1
147 40
148 20
149 10
150 2
151 2
152 2
153 2
154 40
155 10
156 2
157 1
158 20
159 2
160 2
161 2
162 2
163 20
164 2
165 2
166 1
167 40
168 40
169 2
170 1
171 40
172 20
173 2
174 2
175 2
176 2
177 40
178 40
179 10
180 2
181 2
182 2
183 2
184 40
185 40
186 10
187 2
188 2
189 2
190 2
191 1
192 40
193 10
194 2
195 1
196 40
197 40
198 1
199 40
200 2
201 2
202 2
203 1
204 40
205 40
206 10
207 2
208 2
209 2
210 2
211 40
212 10
213 2
214 2
215 2
216 2
217 1
218 40
219 20
220 2
221 2
222 2
223 1
224 20
225 10
226 2
227 1
228 40
229 10
230 2
231 2
232 1
233 40
234 20
235 10
236 2
237 40
238 2
239 2
240 2
241 2
242 40
243 20
244 1
245 40
246 2
247 2
248 2
249 40
250 20
251 2
252 2
253 1
254 40
255 20
256 2
257 2
258 2
259 2
260 1
261 40
262 40
263 10
264 2
265 2
266 40
267 20
268 10
269 2
270 2
271 2
272 2
273 40
274 20
275 10
276 20
277 2
278 2
279 2
280 2
281 1
282 20
283 2
284 2
285 2
286 40
287 40
288 40
289 40
290 2
291 2
292 2
293 40
294 10
295 2
296 1
297 40
298 2
299 2
300 2
301 2
302 40
303 2
304 1
305 40
306 40
307 10
308 40
309 20
310 2
311 2
312 2
313 1
314 40
315 10
316 2
317 2
318 2
319 2
320 1
321 40
322 20
323 10
324 2
325 1
326 40
327 40
328 2
329 2
330 2
331 1
332 40
333 20
334 2
335 20
336 2
337 2
338 1
339 40
340 40
341 10
342 2
343 40
344 1
345 40
346 20
347 40
348 20
349 2
350 40
351 20
352 10
353 2
354 2
355 2
356 2
357 40
358 10
359 2
360 40
361 40
362 2
363 2
364 2
365 2
366 40
367 40
368 2
369 2
370 2
371 1
372 40
373 40
374 10
375 2
376 2
377 40
378 1
379 40
380 2
381 2
382 2
383 2
384 1
385 20
386 10
387 2
388 2
389 2
390 40
391 2
392 2
393 2
394 2
395 40
396 2
397 2
398 2
399 20
400 10
401 2
402 2
403 2
404 2
405 20
406 10
407 40
408 20
409 2
410 2
411 1
412 40
413 20
414 2
415 2
416 2
417 2
418 1
419 40
420 20
421 10
422 2
423 2
424 2
425 2
426 40
427 20
428 20
429 10
430 40
431 2
432 2
433 2
434 1
435 40
436 2
437 2
438 40
439 2
440 40
441 40
442 2
443 2
444 2
445 1
446 20
447 10
448 2
449 2
450 1
451 40
452 2
453 2
454 40
455 2
456 1
457 40
458 20
459 10
460 40
461 20
462 2
463 40
464 40
465 10
466 2
467 2
468 2
469 2
470 40
471 40
472 10
473 2
474 2
475 40
476 10
477 40
478 40
479 10
480 2
481 2
482 1
483 20
484 10
485 2
486 2
487 2
488 2
489 1
490 40
491 40
492 10
493 2
494 2
495 2
496 2
497 20
498 10
499 2
500 40
501 20
502 2
503 2
504 2
505 2
506 1
507 40
508 20
509 10
510 2
511 1
512 40
513 20
514 2
515 2
516 2
517 2
518 40
519 2
520 2
521 20
522 10
523 2
524 2
525 2
526 2
527 40
528 10
529 2
530 20
531 2
532 2
533 2
534 1
535 20
536 2
537 2
538 2
539 40
540 10
541 2
542 2
543 2
544 40
545 10
546 2
547 2
548 2
549 40
550 40
551 10
552 2
553 40
554 40
555 2
556 2
557 2
558 2
559 1
560 40
561 40
562 10
563 2
564 40
565 40
566 40
567 2
568 2
569 2
570 1
571 40
572 40
573 10
574 1
575 40
576 40
577 10
578 2
579 2
580 2
581 40
582 10
583 40
584 10
585 40
586 1
587 20
588 10
589 2
590 40
591 10
592 2
593 2
594 2
595 2
596 40
597 10
598 2
599 2
600 2
601 2
602 40
603 40
604 10
605 40
606 10
607 2
608 20
609 10
610 2
611 2
612 2
613 2
614 1
615 40
616 20
617 10
618 2
619 2
620 2
621 2
622 1
623 40
624 20
625 2
626 2
627 2
628 2
629 1
630 40
631 40
632 10
633 2
634 2
635 40
636 40
637 10
638 2
639 2
640 2
641 1
642 40
643 40
644 20
645 20
646 2
647 2
648 1
649 40
650 10
651 40
652 10
653 2
654 20
655 10
656 2
657 40
658 1
659 20
660 10
661 1
662 40
663 40
664 20
665 10
666 2
667 1
668 40
669 10
670 2
671 20
672 10
673 2
674 2
675 2
676 40
677 40
678 2
679 2
680 1
681 40
682 20
683 1
684 40
685 40
686 2
687 40
688 20
689 2
690 1
691 40
692 10
693 2
694 40
695 10
696 2
697 1
698 40
699 2
700 2
701 1
702 40
703 20
704 2
705 2
706 2
707 1
708 20
709 10
710 2
711 2
712 2
713 1
714 40
715 40
716 2
717 2
718 2
719 2
720 20
721 10
722 2
723 2
724 40
725 2
726 2
727 2
728 2
729 1
730 40
731 40
732 10
733 2
734 1
735 20
736 10
737 2
738 2
739 2
740 2
741 40
742 10
743 2
744 2
745 2
746 2
747 40
748 20
749 2
750 2
751 2
752 1
753 20
754 10
755 2
756 2
757 2
758 40
759 20
760 2
761 2
762 1
763 40
764 40
765 10
766 2
767 2
768 2
769 1
770 40
771 20
772 10
773 40
774 20
775 10
776 2
777 2
778 2
779 1
780 40
781 40
782 20
783 40
784 20
785 10
786 2
787 2
788 2
789 1
790 40
791 10
792 40
793 2
794 2
795 2
796 2
797 40
798 20
799 2
800 2
801 2
802 40
803 20
804 2
805 40
806 20
807 10
808 2
809 2
810 2
811 2
812 1
813 20
814 10
815 2
816 2
817 2
818 2
819 1
820 40
821 40
822 10
823 2
824 2
825 2
826 20
827 10
828 2
829 20
830 10
831 2
832 2
833 40
834 10
835 2
836 2
837 2
838 2
839 40
840 40
841 10
842 2
843 2
844 2
845 2
846 1
847 40
848 10
849 2
850 1
851 20
852 2
853 2
854 2
855 1
856 20
857 10
858 2
859 40
860 10
861 2
862 2
863 2
864 2
865 1
866 40
867 40
868 20
869 40
870 40
871 10
872 2
873 2
874 2
875 40
876 40
877 10
878 2
879 2
880 2
881 1
882 40
883 20
884 10
885 2
886 40
887 20
888 10
889 2
890 2
891 2
892 2
893 1
894 40
895 2
896 2
897 2
898 1
899 40
900 20
901 2
902 2
903 40
904 2
905 40
906 40
907 40
908 2
909 1
910 20
911 2
912 2
913 2
914 2
915 1
916 20
917 10
918 2
919 2
920 2
921 1
DEPOT_SECTION
1
-1
EOF