SDVRP instances/custom_instances/p10_13_split0.sol
920 -5 2 41 40 45 42 46 43 47 44 321 320 322 323 324 724 726 723 728 -13 16 14 15 745 743 742 744 741 740 332 333 331 544 546 545 -29 26 25 31 24 30 27 28 562 560 561 559 -33 36 32 35 570 572 441 443 444 440 442 439 -49 48 359 360 4 1 3 301 302 303 -50 53 51 52 672 670 673 674 228 230 229 231 227 452 451 450 530 531 529 532 533 -60 58 59 57 582 583 573 571 34 85 86 88 89 -63 167 169 168 166 434 436 435 405 404 388 386 387 385 384 -65 64 67 68 69 70 66 641 642 643 -72 178 180 176 177 729 730 731 733 732 -84 83 87 574 575 579 578 576 577 754 755 752 753 756 486 485 -95 97 96 902 903 771 770 769 219 220 -99 98 787 783 636 635 637 634 640 -103 196 195 477 476 -108 105 106 104 107 822 821 819 820 824 823 904 905 -113 117 114 119 115 118 116 412 414 417 411 416 415 413 699 697 700 698 -126 484 487 482 483 488 604 605 606 596 597 595 599 598 600 499 -128 127 803 836 833 835 834 832 837 274 273 272 222 217 218 221 -130 132 129 377 376 882 881 478 481 480 479 -131 644 645 646 647 772 776 775 778 774 777 773 716 714 713 718 717 715 -134 135 133 919 915 267 268 266 265 271 270 269 -170 175 174 172 173 171 526 527 528 154 153 156 155 537 534 536 535 -181 182 179 601 603 368 369 367 370 366 365 849 846 847 848 251 252 -190 188 185 187 184 189 183 186 632 631 633 629 630 -193 192 191 194 77 76 78 427 428 607 609 610 611 613 -199 202 200 198 201 62 61 649 648 585 584 282 281 284 283 705 703 704 -209 208 203 204 205 207 206 781 780 779 -223 768 765 767 764 497 498 496 143 144 142 145 494 490 446 449 447 555 554 -225 224 226 763 762 766 244 246 245 247 696 694 695 693 -239 238 236 811 804 805 806 808 888 885 892 891 887 886 890 889 -255 254 256 258 253 259 257 9 12 10 8 7 6 11 344 345 -261 264 160 161 159 158 157 547 543 80 79 82 81 356 358 -263 260 341 339 340 338 758 760 757 759 761 -293 294 295 292 362 361 364 363 893 895 894 897 896 510 508 506 507 509 -297 300 298 651 650 652 865 867 866 343 342 -299 296 150 148 146 149 152 151 147 662 661 -304 305 18 17 19 21 22 23 20 401 399 402 400 403 398 -312 308 310 309 461 460 307 459 522 523 524 521 520 525 616 621 615 619 620 -318 319 317 316 314 315 313 243 242 241 456 563 -347 348 346 280 278 277 275 276 279 232 234 233 235 237 240 458 457 -357 262 285 286 817 813 812 818 815 814 816 790 789 379 383 382 380 -371 374 373 375 372 56 54 55 782 786 788 785 784 551 -425 426 519 517 518 872 868 869 870 873 871 -454 306 556 557 552 334 553 336 558 337 335 448 445 492 493 491 489 495 -455 453 504 500 501 502 505 503 390 393 392 389 391 685 683 684 -467 464 463 465 462 474 624 626 623 622 -469 471 378 381 617 618 614 899 901 898 900 -473 472 470 690 691 692 682 681 680 907 908 906 -475 851 853 852 854 850 842 845 844 841 843 838 839 840 665 663 664 666 863 859 100 101 102 655 -592 593 591 594 590 589 74 75 73 71 795 792 794 793 791 688 686 689 687 679 677 -602 349 351 352 353 355 350 354 250 248 249 916 917 918 920 -612 608 565 564 568 566 567 569 408 410 406 407 409 720 719 722 721 -625 628 627 421 419 418 424 422 420 423 123 120 122 121 124 657 656 -639 638 468 466 861 858 862 864 860 511 514 516 512 515 513 396 397 394 395 658 660 659 -654 653 550 549 548 801 125 802 -667 668 669 91 90 94 93 92 110 109 111 112 831 830 828 829 -671 588 587 586 437 438 877 876 875 879 880 874 878 727 725 856 -678 675 676 287 288 289 290 291 912 911 909 913 914 910 -706 702 701 213 212 210 215 211 214 216 538 539 542 541 540 855 857 -707 709 711 710 712 708 311 797 800 799 796 798 164 163 165 162 39 38 37 809 807 810 -734 737 736 739 738 735 750 748 749 751 747 581 580 432 431 430 429 433 825 826 827 -746 140 139 138 137 141 136 325 327 330 326 328 329 197 883 884 0 





OBJ=
5274.808
BEST_KNOWN=
0.000